peakDumbCharging = 11100; 
Machine = anon_enum(16); 
machineSpeed = [3700,3700,3700,3700,3700,3700,3700,3700,3700,3700,3700,3700,3700,3700,3700,3700]; 
machineLoad = [3700,3700,3700,3700,3700,3700,3700,3700,3700,3700,3700,3700,3700,3700,3700,3700]; 
Car = anon_enum(9); 
demandCar = [31320,10480,11560,3920,14480,16000,11800,9760,16320]; 
arrivalCar = [71,70,66,63,61,54,54,52,37]; 
departureCar = [82,77,73,66,67,60,59,56,45]; 
